\ LP format - for model browsing. Use MPS format to capture full model detail.
Minimize
  5 x0 - x2 - x3 - 5 x4
Subject To
 constr(0): 5 x0 - 4 x1 + 2 x2 + 3 x4 <= 3
 constr(1): 2 x0 + 2 x1 + 5 x2 + 5 x3 + 2 x4 = 6
Bounds
 x0 <= 4
 x1 <= 1
 x2 <= 5
 x3 <= 5
 x4 <= 3
Generals
 x0 x1 x2 x3 x4
End
